NAME : tsp_186_sol.txt
COMMENT : OR-Tools Guided Local Search
TYPE : TOUR
DIMENSION : 50
COST : 6172
STATUS : ROUTING_SUCCESS
GAP : 0.00% (Reference Solution)
TOUR_SECTION
1
37
3
49
23
46
41
29
24
27
7
20
5
14
17
13
9
39
35
38
10
15
36
26
8
12
47
43
21
45
18
31
34
11
19
40
50
25
33
42
2
16
22
48
30
32
28
44
6
4
-1
